GLPSOL: GLPK LP/MIP Solver, v4.55
Parameter(s) specified in the command line:
 -m tmp.mod
Reading model section from tmp.mod...
Reading data section from tmp.mod...
95 lines were read
Generating obj...
Generating kirhoff...
Generating init_charge...
Generating batt_size...
Model has been successfully generated
GLPK Simplex Optimizer, v4.55
44 rows, 72 columns, 134 non-zeros
Preprocessing...
29 rows, 55 columns, 109 non-zeros
Scaling...
 A: min|aij| =  1.000e+00  max|aij| =  1.000e+00  ratio =  1.000e+00
Problem data seem to be well scaled
Constructing initial basis...
Size of triangular part is 27
      0: obj =   0.000000000e+00  infeas =  2.200e+01 (2)
*    10: obj =   4.000000000e+00  infeas =  0.000e+00 (2)
*    12: obj =   4.000000000e+00  infeas =  0.000e+00 (2)
OPTIMAL LP SOLUTION FOUND
Time used:   0.0 secs
Memory used: 0.2 Mb (240788 bytes)
#OUTPUT:
4
-4 0 0 0 0 0 -13 0 0 0 0 0 -4 0 0 
-5 0 0 0 0 0 0 0 -9 0 0 0 -5 0 0 
#OUTPUT END
Model has been successfully processed
